# File generated with Atomsk by 3048094 
   1.0000000000000000     
    11.1891628297644701   -0.0090407298765775   -0.0162881688391144
    -0.0721553671085253    7.3184372190046805   -0.0069112419476527
    -0.3733335227794341   -1.5622025970722295    9.3814274987331654
  Ca              Si              O               H             
    10    12    36     4
Direct
  0.1271532889477923  0.4009075786704204  0.1001105696178290
  0.8718275135337685  0.6018163004402880  0.8979353609173850
  0.4955470924758367  0.5500548699753718  0.4943692099080653
  0.3694900643375767  0.1005070062853878  0.8963628776974329
  0.6273348304520772  0.9021846436761493  0.0949168693180664
  0.8649810916910009  0.1027257328229841  0.8802640244012389
  0.6310188181437025  0.4026735518819715  0.1140581843483507
  0.1322929213071478  0.9002370854594908  0.1139123963018862
  0.0025060015676430  0.0528067159235230  0.4954341249155770
  0.3634690899647919  0.6045892664562589  0.8755124539273447
  0.1102333989217425  0.8581249881570551  0.7853500059731584
  0.8113536491264308  0.4647925084051166  0.4329210526330008
  0.1846778875749006  0.5281227452545144  0.5645024412591125
  0.6827045210721820  0.0356956065427771  0.5633663401711826
  0.6060823099058027  0.3606371155812546  0.7858997289855079
  0.3868921767603167  0.6445272374374746  0.2106636804367172
  0.6169341371321092  0.7848693008575721  0.7670098324596663
  0.8824966371210154  0.7134740732872831  0.2283076233073765
  0.3854008841312918  0.2142482939116864  0.2191900318591972
  0.3171617427844399  0.9732539798313007  0.4340730769221825
  0.1143992335691708  0.2861129314789871  0.7710124319445859
  0.8871123187042398  0.1403578989137070  0.2097857748928422
  0.1585453287126838  0.5204008492256279  0.3899070227219383
  0.8362778819755388  0.4762623242242528  0.6076312198816552
  0.3230249059161008  0.5414617805125057  0.6180156218629714
  0.3541250718054952  0.0211730044309161  0.6078994828530152
  0.6562205264833412  0.0309501683720957  0.3900914361121426
  0.1774454330552147  0.9429884341488209  0.3878376325295724
  0.0950749725474087  0.0568327248309176  0.7203808301019846
  0.6726989542105416  0.4316973598457506  0.3775959236997027
  0.8199435619872631  0.0768264071032808  0.6195788025127975
  0.1160935668949114  0.3407062964071057  0.6065917338594159
  0.8728165537398997  0.6510156337488622  0.3874303478581773
  0.3932188305036626  0.7829686514230227  0.3695287434064068
  0.3828739488831953  0.1467132433848334  0.3750704205640476
  0.6243995241943064  0.8400712277068803  0.6026152442548651
  0.1060023701258733  0.7054704223915969  0.6383057801768443
  0.5005921273476646  0.6685087029929740  0.1173983627028506
  0.5920492605824117  0.1985313410762498  0.6414317767301894
  0.8943843366409467  0.2853414297411621  0.3639103998957858
  0.9982936952611177  0.6428423949138210  0.1401077072060975
  0.9985442328785179  0.3561385296015604  0.8589834450234245
  0.5019462261844253  0.8595335330903069  0.8540844667800053
  0.7304257305081520  0.3552504504293145  0.8762232111288846
  0.2635951609520827  0.6518618190122750  0.1200285650355734
  0.0017833430298768  0.1590344287870116  0.1166403487526575
  0.4938509789654786  0.3502718615801699  0.8843897717268598
  0.4987739551024272  0.1442741982814623  0.1266983152417762
  0.9969777436765717  0.8442150649579864  0.8827050329021594
  0.2338310394254401  0.3424004128598762  0.8679385859667271
  0.4063067748727453  0.4429470038273326  0.2697867606245297
  0.7631158700297602  0.6641356849028528  0.1278333128525156
  0.9035918583387286  0.9428209071353479  0.2761520647926455
  0.5935396146335378  0.5562138892599052  0.7166607064139698
  0.2322032938433457  0.8561931111118705  0.8811925489416214
  0.7653546273021264  0.1489737944375013  0.1159097608114328
  0.7369568721504617  0.8377452782872491  0.8638641839083206
  0.2631517004452107  0.1641275042460970  0.1249769486260292
  0.6514096353093187  0.1606988713752719  0.3720428090799593
  0.4324350125759745  0.0867769951353570  0.6162266881028063
  0.1505942829112631  0.6489174555612240  0.3721727931962912
  0.8322515979411114  0.3489873698065156  0.6304231036311333

  0.00000000E+00  0.00000000E+00  0.00000000E+00
  0.00000000E+00  0.00000000E+00  0.00000000E+00
  0.00000000E+00  0.00000000E+00  0.00000000E+00
  0.00000000E+00  0.00000000E+00  0.00000000E+00
  0.00000000E+00  0.00000000E+00  0.00000000E+00
  0.00000000E+00  0.00000000E+00  0.00000000E+00
  0.00000000E+00  0.00000000E+00  0.00000000E+00
  0.00000000E+00  0.00000000E+00  0.00000000E+00
  0.00000000E+00  0.00000000E+00  0.00000000E+00
  0.00000000E+00  0.00000000E+00  0.00000000E+00
  0.00000000E+00  0.00000000E+00  0.00000000E+00
  0.00000000E+00  0.00000000E+00  0.00000000E+00
  0.00000000E+00  0.00000000E+00  0.00000000E+00
  0.00000000E+00  0.00000000E+00  0.00000000E+00
  0.00000000E+00  0.00000000E+00  0.00000000E+00
  0.00000000E+00  0.00000000E+00  0.00000000E+00
  0.00000000E+00  0.00000000E+00  0.00000000E+00
  0.00000000E+00  0.00000000E+00  0.00000000E+00
  0.00000000E+00  0.00000000E+00  0.00000000E+00
  0.00000000E+00  0.00000000E+00  0.00000000E+00
  0.00000000E+00  0.00000000E+00  0.00000000E+00
  0.00000000E+00  0.00000000E+00  0.00000000E+00
  0.00000000E+00  0.00000000E+00  0.00000000E+00
  0.00000000E+00  0.00000000E+00  0.00000000E+00
  0.00000000E+00  0.00000000E+00  0.00000000E+00
  0.00000000E+00  0.00000000E+00  0.00000000E+00
  0.00000000E+00  0.00000000E+00  0.00000000E+00
  0.00000000E+00  0.00000000E+00  0.00000000E+00
  0.00000000E+00  0.00000000E+00  0.00000000E+00
  0.00000000E+00  0.00000000E+00  0.00000000E+00
  0.00000000E+00  0.00000000E+00  0.00000000E+00
  0.00000000E+00  0.00000000E+00  0.00000000E+00
  0.00000000E+00  0.00000000E+00  0.00000000E+00
  0.00000000E+00  0.00000000E+00  0.00000000E+00
  0.00000000E+00  0.00000000E+00  0.00000000E+00
  0.00000000E+00  0.00000000E+00  0.00000000E+00
  0.00000000E+00  0.00000000E+00  0.00000000E+00
  0.00000000E+00  0.00000000E+00  0.00000000E+00
  0.00000000E+00  0.00000000E+00  0.00000000E+00
  0.00000000E+00  0.00000000E+00  0.00000000E+00
  0.00000000E+00  0.00000000E+00  0.00000000E+00
  0.00000000E+00  0.00000000E+00  0.00000000E+00
  0.00000000E+00  0.00000000E+00  0.00000000E+00
  0.00000000E+00  0.00000000E+00  0.00000000E+00
  0.00000000E+00  0.00000000E+00  0.00000000E+00
  0.00000000E+00  0.00000000E+00  0.00000000E+00
  0.00000000E+00  0.00000000E+00  0.00000000E+00
  0.00000000E+00  0.00000000E+00  0.00000000E+00
  0.00000000E+00  0.00000000E+00  0.00000000E+00
  0.00000000E+00  0.00000000E+00  0.00000000E+00
  0.00000000E+00  0.00000000E+00  0.00000000E+00
  0.00000000E+00  0.00000000E+00  0.00000000E+00
  0.00000000E+00  0.00000000E+00  0.00000000E+00
  0.00000000E+00  0.00000000E+00  0.00000000E+00
  0.00000000E+00  0.00000000E+00  0.00000000E+00
  0.00000000E+00  0.00000000E+00  0.00000000E+00
  0.00000000E+00  0.00000000E+00  0.00000000E+00
  0.00000000E+00  0.00000000E+00  0.00000000E+00
  0.00000000E+00  0.00000000E+00  0.00000000E+00
  0.00000000E+00  0.00000000E+00  0.00000000E+00
  0.00000000E+00  0.00000000E+00  0.00000000E+00
  0.00000000E+00  0.00000000E+00  0.00000000E+00
